set DIST := 1 2 3 4 5 6;
set COUNTRY := one two three four five;

param deviation := 1 0.5 2 0.5 3 0.6 4 1.3 5 0.7 6 1.2;

param A : 1 2 3 4 5 6:= 
one 1 0 0 0 1 1
two 1 0 1 0 0 1
three 0 0 1 1 1 0
four 0 1 0 1 0 0
five 0 1 0 0 0 1;

